# Objective value = 8
x0,1_2 0
x0,1_23 1
x0,1_28 0
x0,1_29 0
x0,1_32 0
x0,1_35 0
x0,1_42 0
x0,1_45 0
x0,1_69 0
x0,1_72 0
x0,2_2 0
x0,2_23 0
x0,2_28 0
x0,2_29 0
x0,2_32 0
x0,2_35 0
x0,2_42 0
x0,2_45 0
x0,2_69 0
x0,2_72 0
x0,3_2 0
x0,3_23 0
x0,3_28 0
x0,3_29 0
x0,3_32 0
x0,3_35 0
x0,3_42 0
x0,3_45 0
x0,3_69 0
x0,3_72 0
x0,4_2 0
x0,4_23 0
x0,4_28 0
x0,4_29 0
x0,4_32 0
x0,4_35 0
x0,4_42 0
x0,4_45 0
x0,4_69 0
x0,4_72 0
x0,5_2 0
x0,5_23 0
x0,5_28 0
x0,5_29 0
x0,5_32 0
x0,5_35 0
x0,5_42 0
x0,5_45 0
x0,5_69 0
x0,5_72 0
x0,6_2 0
x0,6_23 0
x0,6_28 0
x0,6_29 0
x0,6_32 0
x0,6_35 0
x0,6_42 0
x0,6_45 0
x0,6_69 1
x0,6_72 0
x0,7_2 0
x0,7_23 0
x0,7_28 0
x0,7_29 0
x0,7_32 0
x0,7_35 0
x0,7_42 0
x0,7_45 0
x0,7_69 0
x0,7_72 1
x0,8_2 0
x0,8_23 0
x0,8_28 0
x0,8_29 0
x0,8_32 0
x0,8_35 0
x0,8_42 0
x0,8_45 0
x0,8_69 0
x0,8_72 0
x0,9_2 0
x0,9_23 0
x0,9_28 0
x0,9_29 0
x0,9_32 0
x0,9_35 0
x0,9_42 0
x0,9_45 0
x0,9_69 0
x0,9_72 0
x0,10_2 0
x0,10_23 0
x0,10_28 0
x0,10_29 0
x0,10_32 0
x0,10_35 0
x0,10_42 0
x0,10_45 0
x0,10_69 0
x0,10_72 0
x1,2_2 0
x1,2_23 0
x1,2_28 0
x1,2_29 0
x1,2_32 0
x1,2_35 0
x1,2_42 0
x1,2_45 0
x1,2_69 0
x1,2_72 0
x1,3_2 0
x1,3_23 0
x1,3_28 0
x1,3_29 0
x1,3_32 0
x1,3_35 0
x1,3_42 1
x1,3_45 0
x1,3_69 0
x1,3_72 0
x1,4_2 0
x1,4_23 0
x1,4_28 0
x1,4_29 0
x1,4_32 0
x1,4_35 0
x1,4_42 0
x1,4_45 0
x1,4_69 0
x1,4_72 0
x1,5_2 0
x1,5_23 0
x1,5_28 0
x1,5_29 0
x1,5_32 0
x1,5_35 0
x1,5_42 0
x1,5_45 1
x1,5_69 0
x1,5_72 0
x1,6_2 0
x1,6_23 0
x1,6_28 0
x1,6_29 0
x1,6_32 0
x1,6_35 0
x1,6_42 0
x1,6_45 0
x1,6_69 0
x1,6_72 0
x1,7_2 0
x1,7_23 0
x1,7_28 0
x1,7_29 0
x1,7_32 0
x1,7_35 0
x1,7_42 0
x1,7_45 0
x1,7_69 0
x1,7_72 0
x1,8_2 0
x1,8_23 0
x1,8_28 0
x1,8_29 0
x1,8_32 0
x1,8_35 0
x1,8_42 0
x1,8_45 0
x1,8_69 0
x1,8_72 0
x1,9_2 0
x1,9_23 0
x1,9_28 0
x1,9_29 0
x1,9_32 0
x1,9_35 0
x1,9_42 0
x1,9_45 0
x1,9_69 0
x1,9_72 0
x1,10_2 0
x1,10_23 0
x1,10_28 0
x1,10_29 0
x1,10_32 0
x1,10_35 0
x1,10_42 0
x1,10_45 0
x1,10_69 0
x1,10_72 0
x2,3_2 0
x2,3_23 0
x2,3_28 1
x2,3_29 0
x2,3_32 0
x2,3_35 0
x2,3_42 0
x2,3_45 0
x2,3_69 0
x2,3_72 0
x2,4_2 0
x2,4_23 0
x2,4_28 0
x2,4_29 1
x2,4_32 0
x2,4_35 0
x2,4_42 0
x2,4_45 0
x2,4_69 0
x2,4_72 0
x2,5_2 0
x2,5_23 0
x2,5_28 0
x2,5_29 0
x2,5_32 0
x2,5_35 0
x2,5_42 0
x2,5_45 0
x2,5_69 0
x2,5_72 0
x2,6_2 0
x2,6_23 0
x2,6_28 0
x2,6_29 0
x2,6_32 1
x2,6_35 0
x2,6_42 0
x2,6_45 0
x2,6_69 0
x2,6_72 0
x2,7_2 0
x2,7_23 0
x2,7_28 0
x2,7_29 0
x2,7_32 0
x2,7_35 1
x2,7_42 0
x2,7_45 0
x2,7_69 0
x2,7_72 0
x2,8_2 0
x2,8_23 0
x2,8_28 0
x2,8_29 0
x2,8_32 0
x2,8_35 0
x2,8_42 0
x2,8_45 0
x2,8_69 0
x2,8_72 0
x2,9_2 0
x2,9_23 0
x2,9_28 0
x2,9_29 0
x2,9_32 0
x2,9_35 0
x2,9_42 0
x2,9_45 0
x2,9_69 0
x2,9_72 0
x2,10_2 0
x2,10_23 0
x2,10_28 0
x2,10_29 0
x2,10_32 0
x2,10_35 0
x2,10_42 0
x2,10_45 0
x2,10_69 0
x2,10_72 0
x3,4_2 0
x3,4_23 0
x3,4_28 0
x3,4_29 0
x3,4_32 0
x3,4_35 0
x3,4_42 0
x3,4_45 0
x3,4_69 0
x3,4_72 0
x3,5_2 0
x3,5_23 0
x3,5_28 0
x3,5_29 0
x3,5_32 0
x3,5_35 0
x3,5_42 0
x3,5_45 0
x3,5_69 0
x3,5_72 0
x3,6_2 0
x3,6_23 0
x3,6_28 0
x3,6_29 0
x3,6_32 0
x3,6_35 0
x3,6_42 0
x3,6_45 0
x3,6_69 0
x3,6_72 0
x3,7_2 0
x3,7_23 0
x3,7_28 0
x3,7_29 0
x3,7_32 0
x3,7_35 0
x3,7_42 0
x3,7_45 0
x3,7_69 0
x3,7_72 0
x3,8_2 0
x3,8_23 0
x3,8_28 0
x3,8_29 0
x3,8_32 0
x3,8_35 0
x3,8_42 0
x3,8_45 0
x3,8_69 0
x3,8_72 0
x3,9_2 0
x3,9_23 0
x3,9_28 0
x3,9_29 0
x3,9_32 0
x3,9_35 0
x3,9_42 0
x3,9_45 0
x3,9_69 0
x3,9_72 0
x3,10_2 0
x3,10_23 0
x3,10_28 0
x3,10_29 0
x3,10_32 0
x3,10_35 0
x3,10_42 0
x3,10_45 0
x3,10_69 0
x3,10_72 0
x4,5_2 1
x4,5_23 0
x4,5_28 0
x4,5_29 0
x4,5_32 0
x4,5_35 0
x4,5_42 0
x4,5_45 0
x4,5_69 0
x4,5_72 0
x4,6_2 0
x4,6_23 0
x4,6_28 0
x4,6_29 0
x4,6_32 0
x4,6_35 0
x4,6_42 0
x4,6_45 0
x4,6_69 0
x4,6_72 0
x4,7_2 0
x4,7_23 0
x4,7_28 0
x4,7_29 0
x4,7_32 0
x4,7_35 0
x4,7_42 0
x4,7_45 0
x4,7_69 0
x4,7_72 0
x4,8_2 0
x4,8_23 0
x4,8_28 0
x4,8_29 0
x4,8_32 0
x4,8_35 0
x4,8_42 0
x4,8_45 0
x4,8_69 0
x4,8_72 0
x4,9_2 0
x4,9_23 0
x4,9_28 0
x4,9_29 0
x4,9_32 0
x4,9_35 0
x4,9_42 0
x4,9_45 0
x4,9_69 0
x4,9_72 0
x4,10_2 0
x4,10_23 0
x4,10_28 0
x4,10_29 0
x4,10_32 0
x4,10_35 0
x4,10_42 0
x4,10_45 0
x4,10_69 0
x4,10_72 0
x5,6_2 0
x5,6_23 0
x5,6_28 0
x5,6_29 0
x5,6_32 0
x5,6_35 0
x5,6_42 0
x5,6_45 0
x5,6_69 0
x5,6_72 0
x5,7_2 0
x5,7_23 0
x5,7_28 0
x5,7_29 0
x5,7_32 0
x5,7_35 0
x5,7_42 0
x5,7_45 0
x5,7_69 0
x5,7_72 0
x5,8_2 0
x5,8_23 0
x5,8_28 0
x5,8_29 0
x5,8_32 0
x5,8_35 0
x5,8_42 0
x5,8_45 0
x5,8_69 0
x5,8_72 0
x5,9_2 0
x5,9_23 0
x5,9_28 0
x5,9_29 0
x5,9_32 0
x5,9_35 0
x5,9_42 0
x5,9_45 0
x5,9_69 0
x5,9_72 0
x5,10_2 0
x5,10_23 0
x5,10_28 0
x5,10_29 0
x5,10_32 0
x5,10_35 0
x5,10_42 0
x5,10_45 0
x5,10_69 0
x5,10_72 0
x6,7_2 0
x6,7_23 0
x6,7_28 0
x6,7_29 0
x6,7_32 0
x6,7_35 0
x6,7_42 0
x6,7_45 0
x6,7_69 0
x6,7_72 0
x6,8_2 0
x6,8_23 0
x6,8_28 0
x6,8_29 0
x6,8_32 0
x6,8_35 0
x6,8_42 0
x6,8_45 0
x6,8_69 0
x6,8_72 0
x6,9_2 0
x6,9_23 0
x6,9_28 0
x6,9_29 0
x6,9_32 0
x6,9_35 0
x6,9_42 0
x6,9_45 0
x6,9_69 0
x6,9_72 0
x6,10_2 0
x6,10_23 0
x6,10_28 0
x6,10_29 0
x6,10_32 0
x6,10_35 0
x6,10_42 0
x6,10_45 0
x6,10_69 0
x6,10_72 0
x7,8_2 0
x7,8_23 0
x7,8_28 0
x7,8_29 0
x7,8_32 0
x7,8_35 0
x7,8_42 0
x7,8_45 0
x7,8_69 0
x7,8_72 0
x7,9_2 0
x7,9_23 0
x7,9_28 0
x7,9_29 0
x7,9_32 0
x7,9_35 0
x7,9_42 0
x7,9_45 0
x7,9_69 0
x7,9_72 0
x7,10_2 0
x7,10_23 0
x7,10_28 0
x7,10_29 0
x7,10_32 0
x7,10_35 0
x7,10_42 0
x7,10_45 0
x7,10_69 0
x7,10_72 0
x8,9_2 0
x8,9_23 0
x8,9_28 0
x8,9_29 0
x8,9_32 0
x8,9_35 0
x8,9_42 0
x8,9_45 0
x8,9_69 0
x8,9_72 0
x8,10_2 0
x8,10_23 0
x8,10_28 0
x8,10_29 0
x8,10_32 0
x8,10_35 0
x8,10_42 0
x8,10_45 0
x8,10_69 0
x8,10_72 0
x9,10_2 0
x9,10_23 0
x9,10_28 0
x9,10_29 0
x9,10_32 0
x9,10_35 0
x9,10_42 0
x9,10_45 0
x9,10_69 0
x9,10_72 0
z0 1
z1 1
z2 1
z3 1
z4 1
z5 1
z6 1
z7 1
z8 0
z9 0
z10 0
p0 1
p1 24
p2 38
p3 66
p4 67
p5 69
p6 70
p7 73
p8 74
p9 75
p10 76
